% seed = 7673624

mint = 44;
% maxt = 109;

nActs = 22;
dur = [0,7,2,6,7,5,6,5,5,7,3,9,2,8,9,3,5,3,2,6,9,0];

nSkills = 4;
sreq = [| 0,0,0,0,
	| 3,2,2,1,
	| 2,1,2,1,
	| 3,3,3,2,
	| 3,1,1,2,
	| 2,3,1,2,
	| 1,1,1,1,
	| 3,1,3,2,
	| 3,1,1,1,
	| 1,3,3,3,
	| 2,3,2,1,
	| 3,2,3,3,
	| 2,3,3,2,
	| 3,1,1,1,
	| 2,1,2,3,
	| 2,2,1,2,
	| 3,3,2,1,
	| 3,1,2,2,
	| 3,2,3,3,
	| 2,1,1,1,
	| 2,1,3,2,
	| 0,0,0,0, |];

nResources = 20;
mastery = [| false,true,false,true,
	| false,true,false,false,
	| false,true,true,false,
	| false,false,true,true,
	| false,false,true,false,
	| false,true,true,true,
	| false,true,true,false,
	| true,false,true,false,
	| false,false,false,true,
	| true,false,true,false,
	| true,false,true,true,
	| false,false,false,true,
	| true,true,false,true,
	| true,false,false,false,
	| true,true,true,false,
	| false,false,true,false,
	| true,true,false,true,
	| true,true,true,false,
	| true,false,true,true,
	| false,true,false,false, |];

nPrecs = 31;
pred = [1,1,1,2,2,3,4,5,5,5,6,6,7,8,9,10,11,11,12,12,12,13,13,14,15,16,17,18,19,20,21];
succ = [2,3,4,5,7,12,8,10,11,6,12,13,13,9,21,14,17,18,19,14,15,20,21,16,20,18,20,19,22,22,22];

nUnrels = 113;
unpred = [2,2,2,2,3,3,3,3,3,3,3,3,3,3,3,4,4,4,4,4,4,4,4,4,4,4,4,4,4,5,5,5,6,6,6,6,6,6,7,7,7,7,7,7,7,7,7,7,7,8,8,8,8,8,8,8,8,8,8,8,9,9,9,9,9,9,9,9,9,9,9,10,10,10,10,10,10,10,11,11,11,11,11,11,12,12,12,13,13,13,13,13,13,14,14,14,14,15,15,15,15,15,16,16,16,17,17,17,18,18,19,19,20];
unsucc = [3,4,8,9,4,5,6,7,8,9,10,11,13,17,21,5,6,7,10,11,12,13,14,15,16,17,18,19,20,7,8,9,7,8,9,10,11,17,8,9,10,11,12,14,15,16,17,18,19,10,11,12,13,14,15,16,17,18,19,20,10,11,12,13,14,15,16,17,18,19,20,11,12,13,15,17,20,21,12,13,14,15,16,21,13,17,21,14,15,16,17,18,19,15,17,20,21,16,17,18,19,21,17,20,21,18,19,21,20,21,20,21,21];

USEFUL_RES = [{},
	{1,2,3,4,5,6,7,8,9,10,11,12,13,14,15,16,17,18,19,20},
	{1,2,3,4,5,6,7,8,9,10,11,12,13,14,15,16,17,18,19,20},
	{1,2,3,4,5,6,7,8,9,10,11,12,13,14,15,16,17,18,19,20},
	{1,2,3,4,5,6,7,8,9,10,11,12,13,14,15,16,17,18,19,20},
	{1,2,3,4,5,6,7,8,9,10,11,12,13,14,15,16,17,18,19,20},
	{1,2,3,4,5,6,7,8,9,10,11,12,13,14,15,16,17,18,19,20},
	{1,2,3,4,5,6,7,8,9,10,11,12,13,14,15,16,17,18,19,20},
	{1,2,3,4,5,6,7,8,9,10,11,12,13,14,15,16,17,18,19,20},
	{1,2,3,4,5,6,7,8,9,10,11,12,13,14,15,16,17,18,19,20},
	{1,2,3,4,5,6,7,8,9,10,11,12,13,14,15,16,17,18,19,20},
	{1,2,3,4,5,6,7,8,9,10,11,12,13,14,15,16,17,18,19,20},
	{1,2,3,4,5,6,7,8,9,10,11,12,13,14,15,16,17,18,19,20},
	{1,2,3,4,5,6,7,8,9,10,11,12,13,14,15,16,17,18,19,20},
	{1,2,3,4,5,6,7,8,9,10,11,12,13,14,15,16,17,18,19,20},
	{1,2,3,4,5,6,7,8,9,10,11,12,13,14,15,16,17,18,19,20},
	{1,2,3,4,5,6,7,8,9,10,11,12,13,14,15,16,17,18,19,20},
	{1,2,3,4,5,6,7,8,9,10,11,12,13,14,15,16,17,18,19,20},
	{1,2,3,4,5,6,7,8,9,10,11,12,13,14,15,16,17,18,19,20},
	{1,2,3,4,5,6,7,8,9,10,11,12,13,14,15,16,17,18,19,20},
	{1,2,3,4,5,6,7,8,9,10,11,12,13,14,15,16,17,18,19,20},
	{}];

POTENTIAL_ACT = [{2,3,4,5,6,7,8,9,10,11,12,13,14,15,16,17,18,19,20,21},
	{2,3,4,5,6,7,8,9,10,11,12,13,14,15,16,17,18,19,20,21},
	{2,3,4,5,6,7,8,9,10,11,12,13,14,15,16,17,18,19,20,21},
	{2,3,4,5,6,7,8,9,10,11,12,13,14,15,16,17,18,19,20,21},
	{2,3,4,5,6,7,8,9,10,11,12,13,14,15,16,17,18,19,20,21},
	{2,3,4,5,6,7,8,9,10,11,12,13,14,15,16,17,18,19,20,21},
	{2,3,4,5,6,7,8,9,10,11,12,13,14,15,16,17,18,19,20,21},
	{2,3,4,5,6,7,8,9,10,11,12,13,14,15,16,17,18,19,20,21},
	{2,3,4,5,6,7,8,9,10,11,12,13,14,15,16,17,18,19,20,21},
	{2,3,4,5,6,7,8,9,10,11,12,13,14,15,16,17,18,19,20,21},
	{2,3,4,5,6,7,8,9,10,11,12,13,14,15,16,17,18,19,20,21},
	{2,3,4,5,6,7,8,9,10,11,12,13,14,15,16,17,18,19,20,21},
	{2,3,4,5,6,7,8,9,10,11,12,13,14,15,16,17,18,19,20,21},
	{2,3,4,5,6,7,8,9,10,11,12,13,14,15,16,17,18,19,20,21},
	{2,3,4,5,6,7,8,9,10,11,12,13,14,15,16,17,18,19,20,21},
	{2,3,4,5,6,7,8,9,10,11,12,13,14,15,16,17,18,19,20,21},
	{2,3,4,5,6,7,8,9,10,11,12,13,14,15,16,17,18,19,20,21},
	{2,3,4,5,6,7,8,9,10,11,12,13,14,15,16,17,18,19,20,21},
	{2,3,4,5,6,7,8,9,10,11,12,13,14,15,16,17,18,19,20,21},
	{2,3,4,5,6,7,8,9,10,11,12,13,14,15,16,17,18,19,20,21}];
